c 
c U(n,d) graph
c graph gen seed     : 306
c number of vertices : 60
c max number of edges: 1770
c Euclidean distance : 0.200000
c data structure     : sparse
c
c           Graph Stats
c number of vertices  : 60
c nonisolated vertices: 59
c number of edges     : 212
c edge density        : 0.119774
c max degree          : 13
c avg degree          : 7.07
c min degree          : 0
p col 60 212
e 1 43
e 1 42
e 1 40
e 1 35
e 1 31
e 1 27
e 2 57
e 2 49
e 2 48
e 2 47
e 2 37
e 2 21
e 2 19
e 2 13
e 2 9
e 2 6
e 2 3
e 3 60
e 3 48
e 3 47
e 3 37
e 3 33
e 3 21
e 3 14
e 3 9
e 3 6
e 4 57
e 4 49
e 4 48
e 4 47
e 4 29
e 4 21
e 4 11
e 4 6
e 5 17
e 5 16
e 5 10
e 6 57
e 6 49
e 6 48
e 6 47
e 6 37
e 6 29
e 6 21
e 6 13
e 7 40
e 7 38
e 7 32
e 7 28
e 7 17
e 8 52
e 8 50
e 8 41
e 8 36
e 9 60
e 9 44
e 9 34
e 9 33
e 9 24
e 9 21
e 9 14
e 10 16
e 11 57
e 11 49
e 11 48
e 11 47
e 11 42
e 11 35
e 11 29
e 11 25
e 11 21
e 11 19
e 11 13
e 12 56
e 12 51
e 12 46
e 12 36
e 12 30
e 12 26
e 12 23
e 12 20
e 12 18
e 13 57
e 13 49
e 13 48
e 13 47
e 13 39
e 13 21
e 13 19
e 14 60
e 14 44
e 14 34
e 14 33
e 14 24
e 15 59
e 15 55
e 15 42
e 15 35
e 15 25
e 15 22
e 17 32
e 17 28
e 18 52
e 18 51
e 18 46
e 18 36
e 18 26
e 18 23
e 19 57
e 19 54
e 19 49
e 19 48
e 19 47
e 19 39
e 19 21
e 20 34
e 20 30
e 20 26
e 20 24
e 21 57
e 21 49
e 21 48
e 21 47
e 21 37
e 22 59
e 22 55
e 22 42
e 22 35
e 22 31
e 22 27
e 22 25
e 23 52
e 23 51
e 23 46
e 23 36
e 23 26
e 24 44
e 24 34
e 24 33
e 24 30
e 25 55
e 25 42
e 25 35
e 25 31
e 25 27
e 26 56
e 26 51
e 26 46
e 26 30
e 27 55
e 27 43
e 27 42
e 27 35
e 27 31
e 28 40
e 29 57
e 29 49
e 29 48
e 29 47
e 30 56
e 30 44
e 30 39
e 30 34
e 31 55
e 31 42
e 31 35
e 32 45
e 33 60
e 33 44
e 33 34
e 34 44
e 35 55
e 35 42
e 36 52
e 36 51
e 36 50
e 36 46
e 36 41
e 37 60
e 37 48
e 37 47
e 38 58
e 38 50
e 38 45
e 38 40
e 39 58
e 39 56
e 39 54
e 40 58
e 40 43
e 41 52
e 41 50
e 41 45
e 42 55
e 43 58
e 43 54
e 45 52
e 45 50
e 46 56
e 46 51
e 47 57
e 47 49
e 47 48
e 48 57
e 48 49
e 49 57
e 50 52
e 51 56
e 54 58
e 54 56
e 55 59
e 56 58
